148
100000
56520
52514
17544
19899
74929
3020
50725
21463
62515
25707
42593
40439
57938
17255
27236
14138
25317
13082
3709
3967
16486
55160
33159
74293
21494
5820
56969
14633
11708
61347
12654
41872
9587
43827
21232
28729
7891
33
31281
72764
34851
42685
36398
904
48952
22665
56157
29705
35554
60602
32593
50460
72416
12374
3459
16197
4892
20133
68492
34545
17963
46855
9924
38030
61929
12533
63503
27833
44103
43480
41062
31231
19600
32619
3525
9528
6590
43421
484
7023
49834
60007
27094
42412
3006
21589
22938
59635
24368
6312
13013
5074
32390
11791
38071
4356
8991
36497
10014
16377
44506
58837
3830
16932
59561
39747
4215
59042
40840
11843
11126
5303
23414
47847
36927
45792
44060
36163
28934
29529
67610
38344
34095
6947
40864
17594
24828
43403
336
10208
63073
40417
27098
55494
22145
23179
35865
23228
7677
8574
198
65455
44840
38000
44036
56597
18290
2669
